Route #1: 1 42 26 7 37 45 11 30 38 1
Route #2: 1 41 43 21 31 19 2 9 1
Route #3: 1 48 28 6 52 8 44 1
Route #4: 1 33 35 47 14 18 23 27 5 39 34 1
Route #5: 1 22 12 29 4 32 25 40 15 13 51 46 1
Route #6: 1 24 20 50 16 10 17 49 3 1
Route #7: 1 36 1
cost 867.4469852438589
